%MIP
% number of contracts
cc = 2;
% Teamsizes
sc = [5,10];
% team number
nc = [7,2];
%first team
fc = [1,8];
%last team
lc = [7,9];
% Length of schedule
w = 7;
% number of locations
m = 4;
% number of shift types (without breaks)s
t = 3;
% shift types of locations
SL0 = [1,1,2,3,4];
% number of forbidden combinations of length 2
f2 = 3;
% number of forbidden combinations of length 3
f3 = 0;
%required minimal length of blocks of work shifts
lw = [4,3];
% permitted maximal length of blocks of work shifts
uw= [7,7];
% min number of consecutive days off
b_min = [2,2];
%max number of consecutive days off
b_max = [4,4];

%temporal requirement Matrix
R = [| 5,  5,  5,  5,  5,  5,  5
     | 5,  5,  5,  5,  5,  5,  5
     |10, 10, 10, 10, 10, 10, 10
     |10, 10, 10, 10, 10, 10, 10 |];

R0 = [|5,  5,  5,  5,  5,  5,  5
     | 5,  5,  5,  5,  5,  5,  5
     |10, 10, 10, 10, 10, 10, 10
     |10, 10, 10, 10, 10, 10, 10
     |25, 25, 25, 25, 25, 25, 25|]; 
                               

% first shifttype of forbidden length 2 combination
f2_sh1 = [3,3,2];
%second shifttype of forbidden length 2 combination
f2_sh2 = [1,2,1];
% first shifttype of forbidden length 2 combination
f3_sh1 = [0];
%second shifttype of forbidden length 2 combination
f3_sh2 = [0];
%required minimal length of periods of consecutive shifts of the same type
ls = [|2,2,2
      |2,2,2|];
% permitted maximal length of consecutive shifts of the same type
us = [|7,6,4
      |6,5,4|];